p cnf 196 1
196 0
w 1 0.512355
w 2 1 1
w 2 -1 0
w 3 2 0
w 3 -2 1
w 4 3 0.576588
w 4 -3 0.339162
w 5 4 0.695986
w 5 -4 0.956034
w 6 5 0.405745
w 6 -5 0.167954
w 7 6 0.244712
w 7 -6 0.451933
w 8 7 0.579798
w 8 -7 0.440964
w 9 8 1
w 9 -8 0
w 10 9 1
w 10 -9 0
w 11 10 0.581002
w 11 -10 0.715665
w 12 11 0
w 12 -11 1
w 13 12 1
w 13 -12 0
w 14 13 1
w 14 -13 0
w 15 1 0
w 15 -1 1
w 16 15 2 0.281871
w 16 15 -2 0.780483
w 16 -15 2 0.189262
w 16 -15 -2 0.035474
w 17 16 3 0
w 17 16 -3 0
w 17 -16 3 0
w 17 -16 -3 1
w 18 17 4 0
w 18 17 -4 0
w 18 -17 4 0
w 18 -17 -4 1
w 19 18 5 0
w 19 18 -5 0
w 19 -18 5 0
w 19 -18 -5 1
w 20 19 6 0
w 20 19 -6 1
w 20 -19 6 0
w 20 -19 -6 0
w 21 20 7 0.590634
w 21 20 -7 0.228133
w 21 -20 7 0.234161
w 21 -20 -7 0.794529
w 22 21 8 1
w 22 21 -8 0
w 22 -21 8 0
w 22 -21 -8 1
w 23 22 9 0
w 23 22 -9 1
w 23 -22 9 0
w 23 -22 -9 1
w 24 23 10 0
w 24 23 -10 1
w 24 -23 10 0
w 24 -23 -10 0
w 25 24 11 0.233856
w 25 24 -11 0.0783954
w 25 -24 11 0.0156731
w 25 -24 -11 0.944142
w 26 25 12 0
w 26 25 -12 1
w 26 -25 12 1
w 26 -25 -12 1
w 27 26 13 1
w 27 26 -13 0
w 27 -26 13 0
w 27 -26 -13 1
w 28 27 14 0.461802
w 28 27 -14 0.312931
w 28 -27 14 0.363946
w 28 -27 -14 0.729297
w 29 15 0.415428
w 29 -15 0.142088
w 30 29 16 0.349123
w 30 29 -16 0.868129
w 30 -29 16 0.164502
w 30 -29 -16 0.409745
w 31 30 17 0
w 31 30 -17 1
w 31 -30 17 1
w 31 -30 -17 1
w 32 31 18 1
w 32 31 -18 0
w 32 -31 18 0
w 32 -31 -18 1
w 33 32 19 0.373594
w 33 32 -19 0.391144
w 33 -32 19 0.975706
w 33 -32 -19 0.936332
w 34 33 20 1
w 34 33 -20 0
w 34 -33 20 1
w 34 -33 -20 0
w 35 34 21 0
w 35 34 -21 0
w 35 -34 21 1
w 35 -34 -21 1
w 36 35 22 0.86941
w 36 35 -22 0.302976
w 36 -35 22 0.560591
w 36 -35 -22 0.033912
w 37 36 23 0.919944
w 37 36 -23 0.306088
w 37 -36 23 0.889814
w 37 -36 -23 0.976668
w 38 37 24 0.145301
w 38 37 -24 0.0490648
w 38 -37 24 0.262295
w 38 -37 -24 0.732923
w 39 38 25 1
w 39 38 -25 1
w 39 -38 25 0
w 39 -38 -25 1
w 40 39 26 1
w 40 39 -26 0
w 40 -39 26 0
w 40 -39 -26 1
w 41 40 27 0
w 41 40 -27 1
w 41 -40 27 1
w 41 -40 -27 1
w 42 41 28 0
w 42 41 -28 0
w 42 -41 28 0
w 42 -41 -28 1
w 43 29 0.495586
w 43 -29 0.961994
w 44 43 30 0.3854
w 44 43 -30 0.938662
w 44 -43 30 0.754375
w 44 -43 -30 0.5307
w 45 44 31 0.0166702
w 45 44 -31 0.263623
w 45 -44 31 0.0241657
w 45 -44 -31 0.0992333
w 46 45 32 0
w 46 45 -32 1
w 46 -45 32 0
w 46 -45 -32 0
w 47 46 33 0.189072
w 47 46 -33 0.252488
w 47 -46 33 0.81367
w 47 -46 -33 0.0113166
w 48 47 34 0.602667
w 48 47 -34 0.744162
w 48 -47 34 0.258411
w 48 -47 -34 0.0841267
w 49 48 35 1
w 49 48 -35 0
w 49 -48 35 1
w 49 -48 -35 1
w 50 49 36 0
w 50 49 -36 1
w 50 -49 36 1
w 50 -49 -36 1
w 51 50 37 1
w 51 50 -37 0
w 51 -50 37 1
w 51 -50 -37 1
w 52 51 38 0.0867248
w 52 51 -38 0.490473
w 52 -51 38 0.952621
w 52 -51 -38 0.499715
w 53 52 39 0.527668
w 53 52 -39 0.688787
w 53 -52 39 0.00783928
w 53 -52 -39 0.341338
w 54 53 40 0.786362
w 54 53 -40 0.944005
w 54 -53 40 0.444266
w 54 -53 -40 0.0447724
w 55 54 41 0
w 55 54 -41 1
w 55 -54 41 1
w 55 -54 -41 1
w 56 55 42 0.24248
w 56 55 -42 0.698107
w 56 -55 42 0.545168
w 56 -55 -42 0.269313
w 57 43 1
w 57 -43 0
w 58 57 44 1
w 58 57 -44 0
w 58 -57 44 1
w 58 -57 -44 0
w 59 58 45 0.813071
w 59 58 -45 0.820947
w 59 -58 45 0.301153
w 59 -58 -45 0.568422
w 60 59 46 1
w 60 59 -46 0
w 60 -59 46 1
w 60 -59 -46 1
w 61 60 47 0
w 61 60 -47 0
w 61 -60 47 0
w 61 -60 -47 1
w 62 61 48 0.493443
w 62 61 -48 0.816399
w 62 -61 48 0.698261
w 62 -61 -48 0.116351
w 63 62 49 1
w 63 62 -49 1
w 63 -62 49 1
w 63 -62 -49 0
w 64 63 50 0.612064
w 64 63 -50 0.846897
w 64 -63 50 0.374361
w 64 -63 -50 0.934661
w 65 64 51 0.175799
w 65 64 -51 0.747732
w 65 -64 51 0.536171
w 65 -64 -51 0.476953
w 66 65 52 0
w 66 65 -52 1
w 66 -65 52 0
w 66 -65 -52 1
w 67 66 53 0
w 67 66 -53 1
w 67 -66 53 0
w 67 -66 -53 1
w 68 67 54 0.216241
w 68 67 -54 0.155877
w 68 -67 54 0.687187
w 68 -67 -54 0.914502
w 69 68 55 1
w 69 68 -55 0
w 69 -68 55 1
w 69 -68 -55 1
w 70 69 56 0
w 70 69 -56 1
w 70 -69 56 0
w 70 -69 -56 0
w 71 57 0.143556
w 71 -57 0.368715
w 72 71 58 0
w 72 71 -58 0
w 72 -71 58 1
w 72 -71 -58 1
w 73 72 59 0.642377
w 73 72 -59 0.24434
w 73 -72 59 0.832323
w 73 -72 -59 0.851075
w 74 73 60 0.494757
w 74 73 -60 0.721864
w 74 -73 60 0.75183
w 74 -73 -60 0.650634
w 75 74 61 0
w 75 74 -61 1
w 75 -74 61 0
w 75 -74 -61 0
w 76 75 62 0.229376
w 76 75 -62 0.0617604
w 76 -75 62 0.450003
w 76 -75 -62 0.915699
w 77 76 63 0.417759
w 77 76 -63 0.536682
w 77 -76 63 0.639898
w 77 -76 -63 0.561315
w 78 77 64 0.822749
w 78 77 -64 0.181824
w 78 -77 64 0.590267
w 78 -77 -64 0.890387
w 79 78 65 0
w 79 78 -65 1
w 79 -78 65 1
w 79 -78 -65 1
w 80 79 66 0
w 80 79 -66 1
w 80 -79 66 1
w 80 -79 -66 1
w 81 80 67 0
w 81 80 -67 1
w 81 -80 67 1
w 81 -80 -67 1
w 82 81 68 1
w 82 81 -68 0
w 82 -81 68 0
w 82 -81 -68 0
w 83 82 69 0.499493
w 83 82 -69 0.792495
w 83 -82 69 0.351629
w 83 -82 -69 0.139391
w 84 83 70 1
w 84 83 -70 0
w 84 -83 70 1
w 84 -83 -70 1
w 85 71 0.80486
w 85 -71 0.0148442
w 86 85 72 0
w 86 85 -72 0
w 86 -85 72 1
w 86 -85 -72 0
w 87 86 73 0.874835
w 87 86 -73 0.168563
w 87 -86 73 0.654611
w 87 -86 -73 0.389589
w 88 87 74 0.722736
w 88 87 -74 0.0594616
w 88 -87 74 0.0803929
w 88 -87 -74 0.647469
w 89 88 75 0.586669
w 89 88 -75 0.0222047
w 89 -88 75 0.773657
w 89 -88 -75 0.0861625
w 90 89 76 0.125286
w 90 89 -76 0.225554
w 90 -89 76 0.168511
w 90 -89 -76 0.382313
w 91 90 77 1
w 91 90 -77 1
w 91 -90 77 1
w 91 -90 -77 0
w 92 91 78 1
w 92 91 -78 0
w 92 -91 78 0
w 92 -91 -78 0
w 93 92 79 1
w 93 92 -79 1
w 93 -92 79 0
w 93 -92 -79 0
w 94 93 80 1
w 94 93 -80 0
w 94 -93 80 0
w 94 -93 -80 1
w 95 94 81 0.477239
w 95 94 -81 0.666512
w 95 -94 81 0.815536
w 95 -94 -81 0.250896
w 96 95 82 0.630236
w 96 95 -82 0.376182
w 96 -95 82 0.978228
w 96 -95 -82 0.798746
w 97 96 83 0.165922
w 97 96 -83 0.502892
w 97 -96 83 0.988102
w 97 -96 -83 0.206143
w 98 97 84 1
w 98 97 -84 0
w 98 -97 84 1
w 98 -97 -84 1
w 99 85 0.0343373
w 99 -85 0.260236
w 100 99 86 0.39791
w 100 99 -86 0.683363
w 100 -99 86 0.354844
w 100 -99 -86 0.39736
w 101 100 87 0.873373
w 101 100 -87 0.477202
w 101 -100 87 0.622556
w 101 -100 -87 0.350612
w 102 101 88 1
w 102 101 -88 0
w 102 -101 88 1
w 102 -101 -88 1
w 103 102 89 0.874616
w 103 102 -89 0.867073
w 103 -102 89 0.736186
w 103 -102 -89 0.0405376
w 104 103 90 0
w 104 103 -90 0
w 104 -103 90 0
w 104 -103 -90 1
w 105 104 91 0.221189
w 105 104 -91 0.448561
w 105 -104 91 0.704634
w 105 -104 -91 0.255526
w 106 105 92 0.600411
w 106 105 -92 0.653436
w 106 -105 92 0.39216
w 106 -105 -92 0.955255
w 107 106 93 1
w 107 106 -93 0
w 107 -106 93 1
w 107 -106 -93 1
w 108 107 94 1
w 108 107 -94 0
w 108 -107 94 0
w 108 -107 -94 0
w 109 108 95 1
w 109 108 -95 0
w 109 -108 95 0
w 109 -108 -95 0
w 110 109 96 0
w 110 109 -96 1
w 110 -109 96 0
w 110 -109 -96 0
w 111 110 97 0.190447
w 111 110 -97 0.624315
w 111 -110 97 0.312903
w 111 -110 -97 0.445973
w 112 111 98 1
w 112 111 -98 1
w 112 -111 98 0
w 112 -111 -98 1
w 113 99 1
w 113 -99 0
w 114 113 100 0.678203
w 114 113 -100 0.790598
w 114 -113 100 0.876438
w 114 -113 -100 0.349914
w 115 114 101 0
w 115 114 -101 0
w 115 -114 101 1
w 115 -114 -101 1
w 116 115 102 1
w 116 115 -102 1
w 116 -115 102 0
w 116 -115 -102 1
w 117 116 103 0
w 117 116 -103 1
w 117 -116 103 1
w 117 -116 -103 1
w 118 117 104 1
w 118 117 -104 0
w 118 -117 104 0
w 118 -117 -104 1
w 119 118 105 0
w 119 118 -105 1
w 119 -118 105 0
w 119 -118 -105 0
w 120 119 106 0.97417
w 120 119 -106 0.761311
w 120 -119 106 0.724875
w 120 -119 -106 0.850608
w 121 120 107 0
w 121 120 -107 0
w 121 -120 107 1
w 121 -120 -107 1
w 122 121 108 0.38997
w 122 121 -108 0.860911
w 122 -121 108 0.833674
w 122 -121 -108 0.233953
w 123 122 109 1
w 123 122 -109 1
w 123 -122 109 1
w 123 -122 -109 0
w 124 123 110 0.673324
w 124 123 -110 0.196996
w 124 -123 110 0.485145
w 124 -123 -110 0.506819
w 125 124 111 1
w 125 124 -111 1
w 125 -124 111 0
w 125 -124 -111 1
w 126 125 112 0.381241
w 126 125 -112 0.144691
w 126 -125 112 0.284143
w 126 -125 -112 0.106115
w 127 113 0.395369
w 127 -113 0.903619
w 128 127 114 0.424608
w 128 127 -114 0.124111
w 128 -127 114 0.426515
w 128 -127 -114 0.814578
w 129 128 115 0.260189
w 129 128 -115 0.0485307
w 129 -128 115 0.0737504
w 129 -128 -115 0.22303
w 130 129 116 0.359553
w 130 129 -116 0.49079
w 130 -129 116 0.846456
w 130 -129 -116 0.0328776
w 131 130 117 0.331602
w 131 130 -117 0.539697
w 131 -130 117 0.14713
w 131 -130 -117 0.22515
w 132 131 118 0.594094
w 132 131 -118 0.395671
w 132 -131 118 0.502252
w 132 -131 -118 0.975335
w 133 132 119 0.786396
w 133 132 -119 0.0814502
w 133 -132 119 0.535661
w 133 -132 -119 0.181764
w 134 133 120 0.0387547
w 134 133 -120 0.606373
w 134 -133 120 0.10918
w 134 -133 -120 0.46527
w 135 134 121 1
w 135 134 -121 1
w 135 -134 121 1
w 135 -134 -121 0
w 136 135 122 0.325882
w 136 135 -122 0.527506
w 136 -135 122 0.439279
w 136 -135 -122 0.172338
w 137 136 123 0.127066
w 137 136 -123 0.50394
w 137 -136 123 0.100081
w 137 -136 -123 0.274196
w 138 137 124 0.0795011
w 138 137 -124 0.868291
w 138 -137 124 0.124761
w 138 -137 -124 0.581753
w 139 138 125 0.665124
w 139 138 -125 0.368149
w 139 -138 125 0.925076
w 139 -138 -125 0.200785
w 140 139 126 0.910145
w 140 139 -126 0.239539
w 140 -139 126 0.156286
w 140 -139 -126 0.0193251
w 141 127 0.577237
w 141 -127 0.113528
w 142 141 128 0
w 142 141 -128 0
w 142 -141 128 1
w 142 -141 -128 1
w 143 142 129 0.818037
w 143 142 -129 0.544938
w 143 -142 129 0.369371
w 143 -142 -129 0.945103
w 144 143 130 0
w 144 143 -130 1
w 144 -143 130 1
w 144 -143 -130 1
w 145 144 131 0
w 145 144 -131 0
w 145 -144 131 1
w 145 -144 -131 0
w 146 145 132 0
w 146 145 -132 0
w 146 -145 132 1
w 146 -145 -132 0
w 147 146 133 0
w 147 146 -133 1
w 147 -146 133 0
w 147 -146 -133 0
w 148 147 134 1
w 148 147 -134 0
w 148 -147 134 0
w 148 -147 -134 0
w 149 148 135 0.340048
w 149 148 -135 0.746548
w 149 -148 135 0.359126
w 149 -148 -135 0.28515
w 150 149 136 0.828578
w 150 149 -136 0.504449
w 150 -149 136 0.573393
w 150 -149 -136 0.37753
w 151 150 137 0.476122
w 151 150 -137 0.508236
w 151 -150 137 0.523254
w 151 -150 -137 0.0439738
w 152 151 138 1
w 152 151 -138 0
w 152 -151 138 0
w 152 -151 -138 0
w 153 152 139 0.260914
w 153 152 -139 0.93174
w 153 -152 139 0.533773
w 153 -152 -139 0.0432052
w 154 153 140 0.677027
w 154 153 -140 0.872215
w 154 -153 140 0.011797
w 154 -153 -140 0.199038
w 155 141 1
w 155 -141 0
w 156 155 142 0.820372
w 156 155 -142 0.360679
w 156 -155 142 0.824236
w 156 -155 -142 0.615798
w 157 156 143 1
w 157 156 -143 1
w 157 -156 143 0
w 157 -156 -143 1
w 158 157 144 0.0750222
w 158 157 -144 0.443979
w 158 -157 144 0.709286
w 158 -157 -144 0.0821131
w 159 158 145 0.521897
w 159 158 -145 0.137972
w 159 -158 145 0.969502
w 159 -158 -145 0.342684
w 160 159 146 0
w 160 159 -146 0
w 160 -159 146 1
w 160 -159 -146 0
w 161 160 147 0.314306
w 161 160 -147 0.744068
w 161 -160 147 0.752521
w 161 -160 -147 0.388131
w 162 161 148 0.291607
w 162 161 -148 0.208503
w 162 -161 148 0.106299
w 162 -161 -148 0.115843
w 163 162 149 0.295555
w 163 162 -149 0.444528
w 163 -162 149 0.0134913
w 163 -162 -149 0.862342
w 164 163 150 0
w 164 163 -150 1
w 164 -163 150 0
w 164 -163 -150 1
w 165 164 151 0
w 165 164 -151 0
w 165 -164 151 0
w 165 -164 -151 1
w 166 165 152 1
w 166 165 -152 1
w 166 -165 152 0
w 166 -165 -152 0
w 167 166 153 0
w 167 166 -153 0
w 167 -166 153 1
w 167 -166 -153 1
w 168 167 154 0.725458
w 168 167 -154 0.726737
w 168 -167 154 0.909366
w 168 -167 -154 0.831757
w 169 155 0.733667
w 169 -155 0.127312
w 170 169 156 1
w 170 169 -156 0
w 170 -169 156 1
w 170 -169 -156 0
w 171 170 157 0.461593
w 171 170 -157 0.814051
w 171 -170 157 0.946495
w 171 -170 -157 0.0943472
w 172 171 158 0.103944
w 172 171 -158 0.696604
w 172 -171 158 0.976707
w 172 -171 -158 0.660279
w 173 172 159 1
w 173 172 -159 0
w 173 -172 159 0
w 173 -172 -159 0
w 174 173 160 0.415712
w 174 173 -160 0.223573
w 174 -173 160 0.672301
w 174 -173 -160 0.14117
w 175 174 161 0.581668
w 175 174 -161 0.972927
w 175 -174 161 0.792889
w 175 -174 -161 0.315334
w 176 175 162 1
w 176 175 -162 0
w 176 -175 162 0
w 176 -175 -162 0
w 177 176 163 1
w 177 176 -163 0
w 177 -176 163 1
w 177 -176 -163 0
w 178 177 164 1
w 178 177 -164 0
w 178 -177 164 0
w 178 -177 -164 1
w 179 178 165 0.185006
w 179 178 -165 0.109083
w 179 -178 165 0.386336
w 179 -178 -165 0.62088
w 180 179 166 0.357774
w 180 179 -166 0.036592
w 180 -179 166 0.121098
w 180 -179 -166 0.0300756
w 181 180 167 1
w 181 180 -167 0
w 181 -180 167 0
w 181 -180 -167 0
w 182 181 168 0.250929
w 182 181 -168 0.944293
w 182 -181 168 0.98957
w 182 -181 -168 0.340823
w 183 169 0.478024
w 183 -169 0.357735
w 184 183 170 0.780529
w 184 183 -170 0.321142
w 184 -183 170 0.1589
w 184 -183 -170 0.807072
w 185 184 171 0
w 185 184 -171 1
w 185 -184 171 1
w 185 -184 -171 1
w 186 185 172 0.502458
w 186 185 -172 0.949689
w 186 -185 172 0.816929
w 186 -185 -172 0.860232
w 187 186 173 0.938026
w 187 186 -173 0.890308
w 187 -186 173 0.164043
w 187 -186 -173 0.00943357
w 188 187 174 0.314733
w 188 187 -174 0.87373
w 188 -187 174 0.429129
w 188 -187 -174 0.565662
w 189 188 175 0.418699
w 189 188 -175 0.906485
w 189 -188 175 0.494674
w 189 -188 -175 0.896723
w 190 189 176 1
w 190 189 -176 0
w 190 -189 176 0
w 190 -189 -176 0
w 191 190 177 0.66798
w 191 190 -177 0.294645
w 191 -190 177 0.0899771
w 191 -190 -177 0.996789
w 192 191 178 1
w 192 191 -178 1
w 192 -191 178 0
w 192 -191 -178 1
w 193 192 179 0.969003
w 193 192 -179 0.342976
w 193 -192 179 0.0968018
w 193 -192 -179 0.978436
w 194 193 180 0.411534
w 194 193 -180 0.852166
w 194 -193 180 0.274156
w 194 -193 -180 0.977197
w 195 194 181 0.692855
w 195 194 -181 0.883682
w 195 -194 181 0.164864
w 195 -194 -181 0.589578
w 196 195 182 0
w 196 195 -182 1
w 196 -195 182 1
w 196 -195 -182 1